(set-info :smt-lib-version 2.6)
(set-logic QF_FP)
(set-info :source |
Generated by: Chenqi Cui
Generated on: 2025-11-25
Generator: AutoSMTGen
Application: Generating SMT constraints with small solution spaces to make them challenging for SMT solvers
Target solver: Z3, CVC5, Bitwuzla
|)
(set-info :license "https://creativecommons.org/licenses/by/4.0/")
(set-info :category "industrial")
(set-info :status sat)
; benchmark generated from python API

(declare-fun x6 () (_ FloatingPoint 11 53))
(declare-fun x5 () (_ FloatingPoint 11 53))
(declare-fun x4 () (_ FloatingPoint 11 53))
(declare-fun x3 () (_ FloatingPoint 11 53))
(declare-fun x2 () (_ FloatingPoint 11 53))
(declare-fun x1 () (_ FloatingPoint 11 53))
(declare-fun x0 () (_ FloatingPoint 11 53))
(assert
 (let ((?x17 (fp.add roundNearestTiesToEven (fp.mul roundNearestTiesToEven (fp #b0 #b10000000101 #x537589e890d3d) x0) (fp.mul roundNearestTiesToEven (fp #b1 #b10000000101 #x4f6800de6e167) x1))))
 (let ((?x20 (fp.add roundNearestTiesToEven ?x17 (fp.mul roundNearestTiesToEven (fp #b0 #b10000000101 #x7890414e3e469) x2))))
 (let ((?x23 (fp.add roundNearestTiesToEven ?x20 (fp.mul roundNearestTiesToEven (fp #b0 #b10000000010 #x7801d0af852b8) x3))))
 (let ((?x26 (fp.add roundNearestTiesToEven ?x23 (fp.mul roundNearestTiesToEven (fp #b1 #b10000000101 #x27e8ae9e5fdf7) x4))))
 (let ((?x29 (fp.add roundNearestTiesToEven ?x26 (fp.mul roundNearestTiesToEven (fp #b1 #b10000000011 #x3291b635fbad5) x5))))
 (let ((?x32 (fp.add roundNearestTiesToEven ?x29 (fp.mul roundNearestTiesToEven (fp #b0 #b10000000100 #x496e7075c2776) x6))))
 (fp.leq ?x32 (fp #b0 #b10000000101 #x91ee7a9862033)))))))))
(assert
 (let ((?x56 (fp.add roundNearestTiesToEven (fp.mul roundNearestTiesToEven (fp #b0 #b10000000101 #x10202c9c025c1) x0) (fp.mul roundNearestTiesToEven (fp #b1 #b10000000100 #x0918ac40f1732) x1))))
 (let ((?x59 (fp.add roundNearestTiesToEven ?x56 (fp.mul roundNearestTiesToEven (fp #b1 #b10000000011 #x6d011bb79d82c) x2))))
 (let ((?x62 (fp.add roundNearestTiesToEven ?x59 (fp.mul roundNearestTiesToEven (fp #b0 #b10000000100 #x92e169c7beaa1) x3))))
 (let ((?x65 (fp.add roundNearestTiesToEven ?x62 (fp.mul roundNearestTiesToEven (fp #b0 #b10000000011 #x910b6fd4eb2ee) x4))))
 (let ((?x68 (fp.add roundNearestTiesToEven ?x65 (fp.mul roundNearestTiesToEven (fp #b0 #b10000000010 #xa5b1a31c22f6e) x5))))
 (let ((?x71 (fp.add roundNearestTiesToEven ?x68 (fp.mul roundNearestTiesToEven (fp #b1 #b10000000101 #x0b5c03efda08f) x6))))
 (fp.leq ?x71 (fp #b1 #b10000000010 #x8647dde8c53da)))))))))
(assert
 (let ((?x78 (fp.add roundNearestTiesToEven (fp.mul roundNearestTiesToEven (fp #b0 #b10000000100 #xe88b31beecd0e) x0) (fp.mul roundNearestTiesToEven (fp #b0 #b10000000100 #x92e064ffa8568) x1))))
 (let ((?x81 (fp.add roundNearestTiesToEven ?x78 (fp.mul roundNearestTiesToEven (fp #b0 #b10000000100 #x0440fcb21d755) x2))))
 (let ((?x84 (fp.add roundNearestTiesToEven ?x81 (fp.mul roundNearestTiesToEven (fp #b0 #b10000000011 #xb7f96c55b8a2b) x3))))
 (let ((?x87 (fp.add roundNearestTiesToEven ?x84 (fp.mul roundNearestTiesToEven (fp #b1 #b10000000100 #xb3f243e82fb00) x4))))
 (let ((?x90 (fp.add roundNearestTiesToEven ?x87 (fp.mul roundNearestTiesToEven (fp #b1 #b10000000101 #x8b4811c9d83a4) x5))))
 (let ((?x93 (fp.add roundNearestTiesToEven ?x90 (fp.mul roundNearestTiesToEven (fp #b0 #b10000000100 #x1ab54f2f0b3ee) x6))))
 (fp.leq ?x93 (fp #b0 #b10000000100 #x5df8a65ffe189)))))))))
(assert
 (let ((?x100 (fp.add roundNearestTiesToEven (fp.mul roundNearestTiesToEven (fp #b1 #b10000000101 #x092279e10ca1a) x0) (fp.mul roundNearestTiesToEven (fp #b0 #b10000000101 #x559d8d387383f) x1))))
 (let ((?x103 (fp.add roundNearestTiesToEven ?x100 (fp.mul roundNearestTiesToEven (fp #b1 #b10000000011 #xd0eaffc21eee6) x2))))
 (let ((?x106 (fp.add roundNearestTiesToEven ?x103 (fp.mul roundNearestTiesToEven (fp #b0 #b10000000100 #x53163dd669a8f) x3))))
 (let ((?x109 (fp.add roundNearestTiesToEven ?x106 (fp.mul roundNearestTiesToEven (fp #b1 #b10000000101 #x1b845cf8a1162) x4))))
 (let ((?x112 (fp.add roundNearestTiesToEven ?x109 (fp.mul roundNearestTiesToEven (fp #b0 #b10000000101 #xd89f012e4d590) x5))))
 (let ((?x115 (fp.add roundNearestTiesToEven ?x112 (fp.mul roundNearestTiesToEven (fp #b1 #b10000000101 #x3e1ba798b7573) x6))))
 (fp.leq ?x115 (fp #b0 #b10000000101 #x73524aaa634f1)))))))))
(assert
 (let ((?x122 (fp.add roundNearestTiesToEven (fp.mul roundNearestTiesToEven (fp #b1 #b10000000100 #x4216ba961aac0) x0) (fp.mul roundNearestTiesToEven (fp #b0 #b10000000100 #x4b47323243e3f) x1))))
 (let ((?x125 (fp.add roundNearestTiesToEven ?x122 (fp.mul roundNearestTiesToEven (fp #b0 #b10000000101 #x1c793ad969791) x2))))
 (let ((?x128 (fp.add roundNearestTiesToEven ?x125 (fp.mul roundNearestTiesToEven (fp #b1 #b10000000001 #xd9b3e72791442) x3))))
 (let ((?x131 (fp.add roundNearestTiesToEven ?x128 (fp.mul roundNearestTiesToEven (fp #b0 #b10000000011 #x69411d7eadb95) x4))))
 (let ((?x134 (fp.add roundNearestTiesToEven ?x131 (fp.mul roundNearestTiesToEven (fp #b0 #b10000000011 #xc17cd1dc9a4cf) x5))))
 (let ((?x137 (fp.add roundNearestTiesToEven ?x134 (fp.mul roundNearestTiesToEven (fp #b1 #b01111111110 #xce7f56194801b) x6))))
 (fp.leq ?x137 (fp #b0 #b10000000000 #x1dfd3f8fe586e)))))))))
(assert
 (let ((?x144 (fp.add roundNearestTiesToEven (fp.mul roundNearestTiesToEven (fp #b1 #b10000000100 #x338a6b6414389) x0) (fp.mul roundNearestTiesToEven (fp #b0 #b10000000001 #x9e8aad3ffce67) x1))))
 (let ((?x147 (fp.add roundNearestTiesToEven ?x144 (fp.mul roundNearestTiesToEven (fp #b0 #b10000000101 #x2b5934c99ae3e) x2))))
 (let ((?x150 (fp.add roundNearestTiesToEven ?x147 (fp.mul roundNearestTiesToEven (fp #b1 #b10000000101 #x89e5d8268ea39) x3))))
 (let ((?x153 (fp.add roundNearestTiesToEven ?x150 (fp.mul roundNearestTiesToEven (fp #b0 #b10000000011 #xd62bd0ea19fff) x4))))
 (let ((?x156 (fp.add roundNearestTiesToEven ?x153 (fp.mul roundNearestTiesToEven (fp #b0 #b10000000011 #x45dcbad58f9ef) x5))))
 (let ((?x159 (fp.add roundNearestTiesToEven ?x156 (fp.mul roundNearestTiesToEven (fp #b0 #b01111111110 #xeafbfaab7dd4f) x6))))
 (fp.leq ?x159 (fp #b1 #b10000000101 #x2d0b96559525a)))))))))
(assert
 (let ((?x166 (fp.add roundNearestTiesToEven (fp.mul roundNearestTiesToEven (fp #b0 #b10000000101 #xaf9b968ef8eba) x0) (fp.mul roundNearestTiesToEven (fp #b0 #b10000000100 #xe3885117a3655) x1))))
 (let ((?x169 (fp.add roundNearestTiesToEven ?x166 (fp.mul roundNearestTiesToEven (fp #b0 #b10000000011 #x4a1f08d233374) x2))))
 (let ((?x172 (fp.add roundNearestTiesToEven ?x169 (fp.mul roundNearestTiesToEven (fp #b1 #b10000000101 #x9ec59bc85d023) x3))))
 (let ((?x175 (fp.add roundNearestTiesToEven ?x172 (fp.mul roundNearestTiesToEven (fp #b0 #b10000000000 #xd457dd8b62557) x4))))
 (let ((?x178 (fp.add roundNearestTiesToEven ?x175 (fp.mul roundNearestTiesToEven (fp #b1 #b10000000011 #x8c8867cbe3034) x5))))
 (let ((?x181 (fp.add roundNearestTiesToEven ?x178 (fp.mul roundNearestTiesToEven (fp #b0 #b10000000100 #x3b4655ea84c6e) x6))))
 (fp.leq ?x181 (fp #b0 #b10000000100 #x7ce15f611884e)))))))))
(assert
 (let ((?x188 (fp.add roundNearestTiesToEven (fp.mul roundNearestTiesToEven (fp #b1 #b10000000001 #x0bf2e901be16d) x0) (fp.mul roundNearestTiesToEven (fp #b1 #b10000000011 #x1fba50035284b) x1))))
 (let ((?x191 (fp.add roundNearestTiesToEven ?x188 (fp.mul roundNearestTiesToEven (fp #b0 #b10000000101 #x20e48a0b708be) x2))))
 (let ((?x194 (fp.add roundNearestTiesToEven ?x191 (fp.mul roundNearestTiesToEven (fp #b0 #b10000000100 #xd935ae9da6fc7) x3))))
 (let ((?x197 (fp.add roundNearestTiesToEven ?x194 (fp.mul roundNearestTiesToEven (fp #b0 #b10000000101 #x2b151a1c44843) x4))))
 (let ((?x200 (fp.add roundNearestTiesToEven ?x197 (fp.mul roundNearestTiesToEven (fp #b0 #b10000000100 #xeb247a8035ef7) x5))))
 (let ((?x203 (fp.add roundNearestTiesToEven ?x200 (fp.mul roundNearestTiesToEven (fp #b0 #b10000000101 #x1e973bef6d3c5) x6))))
 (fp.leq ?x203 (fp #b0 #b10000000100 #x7a6c8d8df97ee)))))))))
(assert
 (let ((?x210 (fp.add roundNearestTiesToEven (fp.mul roundNearestTiesToEven (fp #b1 #b10000000011 #xae0a19fbce0b9) x0) (fp.mul roundNearestTiesToEven (fp #b0 #b10000000101 #x23fff3c86831f) x1))))
 (let ((?x213 (fp.add roundNearestTiesToEven ?x210 (fp.mul roundNearestTiesToEven (fp #b1 #b10000000101 #x52827803fd890) x2))))
 (let ((?x216 (fp.add roundNearestTiesToEven ?x213 (fp.mul roundNearestTiesToEven (fp #b1 #b10000000100 #x7ab7a4028abbf) x3))))
 (let ((?x219 (fp.add roundNearestTiesToEven ?x216 (fp.mul roundNearestTiesToEven (fp #b0 #b10000000011 #xe874ef9bb77ae) x4))))
 (let ((?x222 (fp.add roundNearestTiesToEven ?x219 (fp.mul roundNearestTiesToEven (fp #b1 #b10000000101 #x3a165fa0ad6e2) x5))))
 (let ((?x225 (fp.add roundNearestTiesToEven ?x222 (fp.mul roundNearestTiesToEven (fp #b1 #b10000000100 #x7eec4668b2aaa) x6))))
 (fp.leq ?x225 (fp #b1 #b10000000010 #x1db984f535b5b)))))))))
(assert
 (let ((?x232 (fp.add roundNearestTiesToEven (fp.mul roundNearestTiesToEven (fp #b1 #b10000000100 #xeddc9a684590c) x0) (fp.mul roundNearestTiesToEven (fp #b1 #b10000000100 #xa2c7070a26d3b) x1))))
(let ((?x235 (fp.add roundNearestTiesToEven ?x232 (fp.mul roundNearestTiesToEven (fp #b1 #b10000000100 #xc6baf48c44354) x2))))
(let ((?x238 (fp.add roundNearestTiesToEven ?x235 (fp.mul roundNearestTiesToEven (fp #b0 #b10000000100 #x6fa23041ddd80) x3))))
(let ((?x241 (fp.add roundNearestTiesToEven ?x238 (fp.mul roundNearestTiesToEven (fp #b0 #b10000000100 #x0b478c97e111d) x4))))
(let ((?x244 (fp.add roundNearestTiesToEven ?x241 (fp.mul roundNearestTiesToEven (fp #b0 #b10000000010 #x70cd241103341) x5))))
(let ((?x247 (fp.add roundNearestTiesToEven ?x244 (fp.mul roundNearestTiesToEven (fp #b0 #b10000000101 #x10a8a117c60aa) x6))))
(fp.leq ?x247 (fp #b1 #b10000000001 #xe6a081073229f)))))))))
(check-sat)
(exit)
